column=10;
row=10;
Board=[|0,6,7,5,1,0,0,3,8,10|0,10,0,7,9,0,0,0,2,8|0,8,0,0,0,0,5,0,0,4|0,0,9,0,0,0,0,0,0,1|1,5,10,0,0,7,0,6,0,2|0,0,6,4,0,8,0,1,10,0|10,0,0,0,2,0,0,4,5,0|0,0,0,0,0,3,0,0,0,0|4,0,0,10,0,5,2,0,6,9|0,0,0,0,7,0,1,10,9,0|];
